(set-logic DTLIA)
(synth-fun s01 ((x21 Int) (x22 Int)) Int ((Ix Int) (Ic Int))
 ((Ix Int (Ic x21 x22 (- Ix) (+ Ix Ix))) (Ic Int ((Constant Int)))))
(declare-var i0 Int)
(constraint (or (not true) (= i0 (s01 i0 1))))
(check-synth)
